(set-info :smt-lib-version 2.6)
(set-logic QF_NIA)
(set-info :source |
Generated by: Cristina Borralleras, Daniel Larraz, Albert Oliveras, Enric Rodriguez-Carbonell, Albert Rubio
Generated on: 2017-04-27
Generator: VeryMax
Application: Termination proving
Target solver: barcelogic
|)
(set-info :license "https://creativecommons.org/licenses/by/4.0/")
(set-info :category "industrial")
(set-info :status sat)
(declare-fun Nl1__const_1000^01 () Int)
(declare-fun Nl1__const_110^01 () Int)
(declare-fun Nl1__const_4000^01 () Int)
(declare-fun Nl1x^01 () Int)
(declare-fun Nl1y^01 () Int)
(declare-fun Nl1__const_1000^02 () Int)
(declare-fun Nl1__const_110^02 () Int)
(declare-fun Nl1__const_4000^02 () Int)
(declare-fun Nl1x^02 () Int)
(declare-fun Nl1y^02 () Int)
(declare-fun Nl1__const_1000^03 () Int)
(declare-fun Nl1__const_110^03 () Int)
(declare-fun Nl1__const_4000^03 () Int)
(declare-fun Nl1x^03 () Int)
(declare-fun Nl1y^03 () Int)
(declare-fun lam0n0 () Int)
(declare-fun lam0n1 () Int)
(declare-fun lam0n2 () Int)
(declare-fun lam0n3 () Int)
(declare-fun lam0n4 () Int)
(declare-fun lam0n5 () Int)
(declare-fun lam0n6 () Int)
(declare-fun lam0n8 () Int)
(declare-fun lam0n9 () Int)
(declare-fun lam0n10 () Int)
(declare-fun lam0n11 () Int)
(declare-fun UndefCntr0_CT () Int)
(declare-fun Nl1CT1 () Int)
(declare-fun Nl1CT2 () Int)
(declare-fun Nl1CT3 () Int)
(declare-fun lam0n7 () Int)
(declare-fun UndefCntr0___const_1000^0 () Int)
(declare-fun UndefCntr0___const_110^0 () Int)
(declare-fun UndefCntr0___const_4000^0 () Int)
(declare-fun UndefCntr0_x^0 () Int)
(declare-fun UndefCntr0_y^0 () Int)
(declare-fun UndefCntr0_undef5 () Int)
(declare-fun lam1n0 () Int)
(declare-fun lam1n1 () Int)
(declare-fun lam1n2 () Int)
(declare-fun lam1n3 () Int)
(declare-fun lam1n4 () Int)
(declare-fun lam1n5 () Int)
(declare-fun lam1n6 () Int)
(declare-fun lam1n8 () Int)
(declare-fun lam1n9 () Int)
(declare-fun lam1n10 () Int)
(declare-fun lam1n11 () Int)
(declare-fun lam1n7 () Int)
(declare-fun lam2n0 () Int)
(declare-fun lam2n1 () Int)
(declare-fun lam2n2 () Int)
(declare-fun lam2n3 () Int)
(declare-fun lam2n4 () Int)
(declare-fun lam2n5 () Int)
(declare-fun lam2n6 () Int)
(declare-fun lam2n8 () Int)
(declare-fun lam2n9 () Int)
(declare-fun lam2n10 () Int)
(declare-fun lam2n11 () Int)
(declare-fun lam2n7 () Int)
(declare-fun lam3n0 () Int)
(declare-fun lam3n1 () Int)
(declare-fun lam3n2 () Int)
(declare-fun lam3n3 () Int)
(declare-fun lam3n4 () Int)
(declare-fun lam3n5 () Int)
(declare-fun lam3n6 () Int)
(declare-fun lam3n8 () Int)
(declare-fun lam3n9 () Int)
(declare-fun lam3n10 () Int)
(declare-fun lam3n11 () Int)
(declare-fun lam3n7 () Int)
(declare-fun __const_1000^0 () Int)
(declare-fun __const_110^0 () Int)
(declare-fun __const_4000^0 () Int)
(declare-fun x^0 () Int)
(declare-fun y^0 () Int)
(declare-fun FV___const_1000^0_1 () Int)
(declare-fun FV___const_110^0_1 () Int)
(declare-fun FV___const_4000^0_1 () Int)
(declare-fun FV_x^0_1 () Int)
(declare-fun FV_y^0_1 () Int)
(declare-fun lam7n0 () Int)
(declare-fun lam7n1 () Int)
(declare-fun lam7n2 () Int)
(declare-fun lam7n3 () Int)
(declare-fun lam7n4 () Int)
(declare-fun lam7n5 () Int)
(declare-fun lam7n6 () Int)
(declare-fun lam7n7 () Int)
(declare-fun lam7n8 () Int)
(declare-fun lam8n0 () Int)
(declare-fun lam8n1 () Int)
(declare-fun lam8n2 () Int)
(declare-fun lam8n3 () Int)
(declare-fun lam8n4 () Int)
(declare-fun lam8n5 () Int)
(declare-fun lam8n6 () Int)
(declare-fun lam8n7 () Int)
(declare-fun lam8n8 () Int)
(declare-fun UndefDef0undef5_CT () Int)
(declare-fun UndefDef0undef5___const_1000^0 () Int)
(declare-fun UndefDef0undef5___const_110^0 () Int)
(declare-fun UndefDef0undef5___const_4000^0 () Int)
(declare-fun UndefDef0undef5_x^0 () Int)
(declare-fun UndefDef0undef5_y^0 () Int)
(declare-fun lam9n0 () Int)
(declare-fun lam9n1 () Int)
(declare-fun lam9n2 () Int)
(declare-fun lam9n3 () Int)
(declare-fun lam9n4 () Int)
(declare-fun lam9n5 () Int)
(declare-fun lam9n6 () Int)
(declare-fun lam9n7 () Int)
(declare-fun lam9n8 () Int)
(declare-fun lam10n0 () Int)
(declare-fun lam10n1 () Int)
(declare-fun lam10n2 () Int)
(declare-fun lam10n3 () Int)
(declare-fun lam10n4 () Int)
(declare-fun lam10n5 () Int)
(declare-fun lam10n6 () Int)
(declare-fun lam10n7 () Int)
(declare-fun lam10n8 () Int)
(declare-fun lam11n0 () Int)
(declare-fun lam11n1 () Int)
(declare-fun lam11n2 () Int)
(declare-fun lam11n3 () Int)
(declare-fun lam11n4 () Int)
(declare-fun lam11n5 () Int)
(declare-fun lam11n6 () Int)
(declare-fun lam11n7 () Int)
(declare-fun lam11n8 () Int)
(declare-fun lam12n0 () Int)
(declare-fun lam12n1 () Int)
(declare-fun lam12n2 () Int)
(declare-fun lam12n3 () Int)
(declare-fun lam12n4 () Int)
(declare-fun lam12n5 () Int)
(declare-fun lam12n6 () Int)
(declare-fun lam12n7 () Int)
(declare-fun lam12n8 () Int)
(declare-fun FV___const_1000^0_2 () Int)
(declare-fun FV___const_110^0_2 () Int)
(declare-fun FV_x^0_2 () Int)
(declare-fun FV___const_4000^0_2 () Int)
(declare-fun FV_y^0_2 () Int)
(declare-fun FV_undef5_2 () Int)
(assert ( and ( <= ( - 1 ) Nl1__const_1000^01 ) ( <= Nl1__const_1000^01 1 ) ( <= ( - 1 ) Nl1__const_110^01 ) ( <= Nl1__const_110^01 1 ) ( <= ( - 1 ) Nl1__const_4000^01 ) ( <= Nl1__const_4000^01 1 ) ( <= ( - 1 ) Nl1x^01 ) ( <= Nl1x^01 1 ) ( <= ( - 1 ) Nl1y^01 ) ( <= Nl1y^01 1 ) ( <= ( - 1 ) Nl1__const_1000^02 ) ( <= Nl1__const_1000^02 1 ) ( <= ( - 1 ) Nl1__const_110^02 ) ( <= Nl1__const_110^02 1 ) ( <= ( - 1 ) Nl1__const_4000^02 ) ( <= Nl1__const_4000^02 1 ) ( <= ( - 1 ) Nl1x^02 ) ( <= Nl1x^02 1 ) ( <= ( - 1 ) Nl1y^02 ) ( <= Nl1y^02 1 ) ( <= ( - 1 ) Nl1__const_1000^03 ) ( <= Nl1__const_1000^03 1 ) ( <= ( - 1 ) Nl1__const_110^03 ) ( <= Nl1__const_110^03 1 ) ( <= ( - 1 ) Nl1__const_4000^03 ) ( <= Nl1__const_4000^03 1 ) ( <= ( - 1 ) Nl1x^03 ) ( <= Nl1x^03 1 ) ( <= ( - 1 ) Nl1y^03 ) ( <= Nl1y^03 1 ) ))
(assert ( or ( and ( >= lam0n0 0 ) ( >= lam0n1 0 ) ( >= lam0n2 0 ) ( >= lam0n3 0 ) ( >= lam0n4 0 ) ( >= lam0n5 0 ) ( >= lam0n6 0 ) ( >= lam0n8 0 ) ( >= lam0n9 0 ) ( >= lam0n10 0 ) ( >= lam0n11 0 ) ( > ( + ( * 1 lam0n0 ) ( * 1 lam0n1 ) ( * 1 lam0n2 ) ( * 1 lam0n3 ) ( * 2 lam0n6 ) ( * UndefCntr0_CT lam0n8 ) ( * Nl1CT1 lam0n9 ) ( * Nl1CT2 lam0n10 ) ( * Nl1CT3 lam0n11 ) ( - 1 ) ) 0 ) ( = ( + ( * ( - 1 ) lam0n0 ) ( * ( - 1 ) lam0n1 ) ( * ( - 1 ) lam0n4 ) ( * ( - 1 ) lam0n5 ) ( * ( - 1 ) lam0n6 ) ( * 1 lam0n7 ) ( * UndefCntr0___const_1000^0 lam0n8 ) ( * Nl1__const_1000^01 lam0n9 ) ( * Nl1__const_1000^02 lam0n10 ) ( * Nl1__const_1000^03 lam0n11 ) ) 0 ) ( = ( + ( * 1 lam0n0 ) ( * 1 lam0n2 ) ( * 1 lam0n5 ) ( * 1 lam0n6 ) ( * UndefCntr0___const_110^0 lam0n8 ) ( * Nl1__const_110^01 lam0n9 ) ( * Nl1__const_110^02 lam0n10 ) ( * Nl1__const_110^03 lam0n11 ) ) 0 ) ( = ( + ( * ( - 1 ) lam0n1 ) ( * ( - 1 ) lam0n3 ) ( * 1 lam0n5 ) ( * ( - 1 ) lam0n6 ) ( * UndefCntr0___const_4000^0 lam0n8 ) ( * Nl1__const_4000^01 lam0n9 ) ( * Nl1__const_4000^02 lam0n10 ) ( * Nl1__const_4000^03 lam0n11 ) ) 0 ) ( = ( + ( * ( - 1 ) lam0n0 ) ( * ( - 1 ) lam0n5 ) ( * ( - 1 ) lam0n6 ) ( * 1 lam0n7 ) ( * UndefCntr0_x^0 lam0n8 ) ( * Nl1x^01 lam0n9 ) ( * Nl1x^02 lam0n10 ) ( * Nl1x^03 lam0n11 ) ) 0 ) ( = ( + ( * 1 lam0n1 ) ( * 1 lam0n3 ) ( * ( - 1 ) lam0n5 ) ( * 1 lam0n6 ) ( * UndefCntr0_y^0 lam0n8 ) ( * Nl1y^01 lam0n9 ) ( * Nl1y^02 lam0n10 ) ( * Nl1y^03 lam0n11 ) ) 0 ) ( = ( + ( * ( - 1 ) lam0n2 ) ( * ( - 1 ) lam0n7 ) ( * UndefCntr0_undef5 lam0n8 ) ) 0 ) ) ( and ( >= lam1n0 0 ) ( >= lam1n1 0 ) ( >= lam1n2 0 ) ( >= lam1n3 0 ) ( >= lam1n4 0 ) ( >= lam1n5 0 ) ( >= lam1n6 0 ) ( >= lam1n8 0 ) ( >= lam1n9 0 ) ( >= lam1n10 0 ) ( >= lam1n11 0 ) ( > ( + ( * 1 lam1n0 ) ( * 1 lam1n1 ) ( * 1 lam1n2 ) ( * 1 lam1n3 ) ( * 2 lam1n6 ) ( * UndefCntr0_CT lam1n8 ) ( * Nl1CT1 lam1n9 ) ( * Nl1CT2 lam1n10 ) ( * Nl1CT3 lam1n11 ) ( - 1 ( + Nl1CT1 ( * Nl1x^01 0 ) ) ) ) 0 ) ( = ( + ( * ( - 1 ) lam1n0 ) ( * ( - 1 ) lam1n1 ) ( * ( - 1 ) lam1n4 ) ( * ( - 1 ) lam1n5 ) ( * ( - 1 ) lam1n6 ) ( * 1 lam1n7 ) ( * UndefCntr0___const_1000^0 lam1n8 ) ( * Nl1__const_1000^01 lam1n9 ) ( * Nl1__const_1000^02 lam1n10 ) ( * Nl1__const_1000^03 lam1n11 ) ( - ( + 0 Nl1__const_1000^01 ) ) ) 0 ) ( = ( + ( * 1 lam1n0 ) ( * 1 lam1n2 ) ( * 1 lam1n5 ) ( * 1 lam1n6 ) ( * UndefCntr0___const_110^0 lam1n8 ) ( * Nl1__const_110^01 lam1n9 ) ( * Nl1__const_110^02 lam1n10 ) ( * Nl1__const_110^03 lam1n11 ) ( - ( + 0 Nl1__const_110^01 ) ) ) 0 ) ( = ( + ( * ( - 1 ) lam1n1 ) ( * ( - 1 ) lam1n3 ) ( * 1 lam1n5 ) ( * ( - 1 ) lam1n6 ) ( * UndefCntr0___const_4000^0 lam1n8 ) ( * Nl1__const_4000^01 lam1n9 ) ( * Nl1__const_4000^02 lam1n10 ) ( * Nl1__const_4000^03 lam1n11 ) ( - ( + 0 Nl1__const_4000^01 ) ) ) 0 ) ( = ( + ( * ( - 1 ) lam1n0 ) ( * ( - 1 ) lam1n5 ) ( * ( - 1 ) lam1n6 ) ( * 1 lam1n7 ) ( * UndefCntr0_x^0 lam1n8 ) ( * Nl1x^01 lam1n9 ) ( * Nl1x^02 lam1n10 ) ( * Nl1x^03 lam1n11 ) ) 0 ) ( = ( + ( * 1 lam1n1 ) ( * 1 lam1n3 ) ( * ( - 1 ) lam1n5 ) ( * 1 lam1n6 ) ( * UndefCntr0_y^0 lam1n8 ) ( * Nl1y^01 lam1n9 ) ( * Nl1y^02 lam1n10 ) ( * Nl1y^03 lam1n11 ) ( - ( + 0 Nl1y^01 ) ) ) 0 ) ( = ( + ( * ( - 1 ) lam1n2 ) ( * ( - 1 ) lam1n7 ) ( * UndefCntr0_undef5 lam1n8 ) ( - ( + 0 ( * Nl1x^01 1 ) ) ) ) 0 ) ) ))
(assert ( or ( and ( >= lam0n0 0 ) ( >= lam0n1 0 ) ( >= lam0n2 0 ) ( >= lam0n3 0 ) ( >= lam0n4 0 ) ( >= lam0n5 0 ) ( >= lam0n6 0 ) ( >= lam0n8 0 ) ( >= lam0n9 0 ) ( >= lam0n10 0 ) ( >= lam0n11 0 ) ( > ( + ( * 1 lam0n0 ) ( * 1 lam0n1 ) ( * 1 lam0n2 ) ( * 1 lam0n3 ) ( * 2 lam0n6 ) ( * UndefCntr0_CT lam0n8 ) ( * Nl1CT1 lam0n9 ) ( * Nl1CT2 lam0n10 ) ( * Nl1CT3 lam0n11 ) ( - 1 ) ) 0 ) ( = ( + ( * ( - 1 ) lam0n0 ) ( * ( - 1 ) lam0n1 ) ( * ( - 1 ) lam0n4 ) ( * ( - 1 ) lam0n5 ) ( * ( - 1 ) lam0n6 ) ( * 1 lam0n7 ) ( * UndefCntr0___const_1000^0 lam0n8 ) ( * Nl1__const_1000^01 lam0n9 ) ( * Nl1__const_1000^02 lam0n10 ) ( * Nl1__const_1000^03 lam0n11 ) ) 0 ) ( = ( + ( * 1 lam0n0 ) ( * 1 lam0n2 ) ( * 1 lam0n5 ) ( * 1 lam0n6 ) ( * UndefCntr0___const_110^0 lam0n8 ) ( * Nl1__const_110^01 lam0n9 ) ( * Nl1__const_110^02 lam0n10 ) ( * Nl1__const_110^03 lam0n11 ) ) 0 ) ( = ( + ( * ( - 1 ) lam0n1 ) ( * ( - 1 ) lam0n3 ) ( * 1 lam0n5 ) ( * ( - 1 ) lam0n6 ) ( * UndefCntr0___const_4000^0 lam0n8 ) ( * Nl1__const_4000^01 lam0n9 ) ( * Nl1__const_4000^02 lam0n10 ) ( * Nl1__const_4000^03 lam0n11 ) ) 0 ) ( = ( + ( * ( - 1 ) lam0n0 ) ( * ( - 1 ) lam0n5 ) ( * ( - 1 ) lam0n6 ) ( * 1 lam0n7 ) ( * UndefCntr0_x^0 lam0n8 ) ( * Nl1x^01 lam0n9 ) ( * Nl1x^02 lam0n10 ) ( * Nl1x^03 lam0n11 ) ) 0 ) ( = ( + ( * 1 lam0n1 ) ( * 1 lam0n3 ) ( * ( - 1 ) lam0n5 ) ( * 1 lam0n6 ) ( * UndefCntr0_y^0 lam0n8 ) ( * Nl1y^01 lam0n9 ) ( * Nl1y^02 lam0n10 ) ( * Nl1y^03 lam0n11 ) ) 0 ) ( = ( + ( * ( - 1 ) lam0n2 ) ( * ( - 1 ) lam0n7 ) ( * UndefCntr0_undef5 lam0n8 ) ) 0 ) ) ( and ( >= lam2n0 0 ) ( >= lam2n1 0 ) ( >= lam2n2 0 ) ( >= lam2n3 0 ) ( >= lam2n4 0 ) ( >= lam2n5 0 ) ( >= lam2n6 0 ) ( >= lam2n8 0 ) ( >= lam2n9 0 ) ( >= lam2n10 0 ) ( >= lam2n11 0 ) ( > ( + ( * 1 lam2n0 ) ( * 1 lam2n1 ) ( * 1 lam2n2 ) ( * 1 lam2n3 ) ( * 2 lam2n6 ) ( * UndefCntr0_CT lam2n8 ) ( * Nl1CT1 lam2n9 ) ( * Nl1CT2 lam2n10 ) ( * Nl1CT3 lam2n11 ) ( - 1 ( + Nl1CT2 ( * Nl1x^02 0 ) ) ) ) 0 ) ( = ( + ( * ( - 1 ) lam2n0 ) ( * ( - 1 ) lam2n1 ) ( * ( - 1 ) lam2n4 ) ( * ( - 1 ) lam2n5 ) ( * ( - 1 ) lam2n6 ) ( * 1 lam2n7 ) ( * UndefCntr0___const_1000^0 lam2n8 ) ( * Nl1__const_1000^01 lam2n9 ) ( * Nl1__const_1000^02 lam2n10 ) ( * Nl1__const_1000^03 lam2n11 ) ( - ( + 0 Nl1__const_1000^02 ) ) ) 0 ) ( = ( + ( * 1 lam2n0 ) ( * 1 lam2n2 ) ( * 1 lam2n5 ) ( * 1 lam2n6 ) ( * UndefCntr0___const_110^0 lam2n8 ) ( * Nl1__const_110^01 lam2n9 ) ( * Nl1__const_110^02 lam2n10 ) ( * Nl1__const_110^03 lam2n11 ) ( - ( + 0 Nl1__const_110^02 ) ) ) 0 ) ( = ( + ( * ( - 1 ) lam2n1 ) ( * ( - 1 ) lam2n3 ) ( * 1 lam2n5 ) ( * ( - 1 ) lam2n6 ) ( * UndefCntr0___const_4000^0 lam2n8 ) ( * Nl1__const_4000^01 lam2n9 ) ( * Nl1__const_4000^02 lam2n10 ) ( * Nl1__const_4000^03 lam2n11 ) ( - ( + 0 Nl1__const_4000^02 ) ) ) 0 ) ( = ( + ( * ( - 1 ) lam2n0 ) ( * ( - 1 ) lam2n5 ) ( * ( - 1 ) lam2n6 ) ( * 1 lam2n7 ) ( * UndefCntr0_x^0 lam2n8 ) ( * Nl1x^01 lam2n9 ) ( * Nl1x^02 lam2n10 ) ( * Nl1x^03 lam2n11 ) ) 0 ) ( = ( + ( * 1 lam2n1 ) ( * 1 lam2n3 ) ( * ( - 1 ) lam2n5 ) ( * 1 lam2n6 ) ( * UndefCntr0_y^0 lam2n8 ) ( * Nl1y^01 lam2n9 ) ( * Nl1y^02 lam2n10 ) ( * Nl1y^03 lam2n11 ) ( - ( + 0 Nl1y^02 ) ) ) 0 ) ( = ( + ( * ( - 1 ) lam2n2 ) ( * ( - 1 ) lam2n7 ) ( * UndefCntr0_undef5 lam2n8 ) ( - ( + 0 ( * Nl1x^02 1 ) ) ) ) 0 ) ) ))
(assert ( or ( and ( >= lam0n0 0 ) ( >= lam0n1 0 ) ( >= lam0n2 0 ) ( >= lam0n3 0 ) ( >= lam0n4 0 ) ( >= lam0n5 0 ) ( >= lam0n6 0 ) ( >= lam0n8 0 ) ( >= lam0n9 0 ) ( >= lam0n10 0 ) ( >= lam0n11 0 ) ( > ( + ( * 1 lam0n0 ) ( * 1 lam0n1 ) ( * 1 lam0n2 ) ( * 1 lam0n3 ) ( * 2 lam0n6 ) ( * UndefCntr0_CT lam0n8 ) ( * Nl1CT1 lam0n9 ) ( * Nl1CT2 lam0n10 ) ( * Nl1CT3 lam0n11 ) ( - 1 ) ) 0 ) ( = ( + ( * ( - 1 ) lam0n0 ) ( * ( - 1 ) lam0n1 ) ( * ( - 1 ) lam0n4 ) ( * ( - 1 ) lam0n5 ) ( * ( - 1 ) lam0n6 ) ( * 1 lam0n7 ) ( * UndefCntr0___const_1000^0 lam0n8 ) ( * Nl1__const_1000^01 lam0n9 ) ( * Nl1__const_1000^02 lam0n10 ) ( * Nl1__const_1000^03 lam0n11 ) ) 0 ) ( = ( + ( * 1 lam0n0 ) ( * 1 lam0n2 ) ( * 1 lam0n5 ) ( * 1 lam0n6 ) ( * UndefCntr0___const_110^0 lam0n8 ) ( * Nl1__const_110^01 lam0n9 ) ( * Nl1__const_110^02 lam0n10 ) ( * Nl1__const_110^03 lam0n11 ) ) 0 ) ( = ( + ( * ( - 1 ) lam0n1 ) ( * ( - 1 ) lam0n3 ) ( * 1 lam0n5 ) ( * ( - 1 ) lam0n6 ) ( * UndefCntr0___const_4000^0 lam0n8 ) ( * Nl1__const_4000^01 lam0n9 ) ( * Nl1__const_4000^02 lam0n10 ) ( * Nl1__const_4000^03 lam0n11 ) ) 0 ) ( = ( + ( * ( - 1 ) lam0n0 ) ( * ( - 1 ) lam0n5 ) ( * ( - 1 ) lam0n6 ) ( * 1 lam0n7 ) ( * UndefCntr0_x^0 lam0n8 ) ( * Nl1x^01 lam0n9 ) ( * Nl1x^02 lam0n10 ) ( * Nl1x^03 lam0n11 ) ) 0 ) ( = ( + ( * 1 lam0n1 ) ( * 1 lam0n3 ) ( * ( - 1 ) lam0n5 ) ( * 1 lam0n6 ) ( * UndefCntr0_y^0 lam0n8 ) ( * Nl1y^01 lam0n9 ) ( * Nl1y^02 lam0n10 ) ( * Nl1y^03 lam0n11 ) ) 0 ) ( = ( + ( * ( - 1 ) lam0n2 ) ( * ( - 1 ) lam0n7 ) ( * UndefCntr0_undef5 lam0n8 ) ) 0 ) ) ( and ( >= lam3n0 0 ) ( >= lam3n1 0 ) ( >= lam3n2 0 ) ( >= lam3n3 0 ) ( >= lam3n4 0 ) ( >= lam3n5 0 ) ( >= lam3n6 0 ) ( >= lam3n8 0 ) ( >= lam3n9 0 ) ( >= lam3n10 0 ) ( >= lam3n11 0 ) ( > ( + ( * 1 lam3n0 ) ( * 1 lam3n1 ) ( * 1 lam3n2 ) ( * 1 lam3n3 ) ( * 2 lam3n6 ) ( * UndefCntr0_CT lam3n8 ) ( * Nl1CT1 lam3n9 ) ( * Nl1CT2 lam3n10 ) ( * Nl1CT3 lam3n11 ) ( - 1 ( + Nl1CT3 ( * Nl1x^03 0 ) ) ) ) 0 ) ( = ( + ( * ( - 1 ) lam3n0 ) ( * ( - 1 ) lam3n1 ) ( * ( - 1 ) lam3n4 ) ( * ( - 1 ) lam3n5 ) ( * ( - 1 ) lam3n6 ) ( * 1 lam3n7 ) ( * UndefCntr0___const_1000^0 lam3n8 ) ( * Nl1__const_1000^01 lam3n9 ) ( * Nl1__const_1000^02 lam3n10 ) ( * Nl1__const_1000^03 lam3n11 ) ( - ( + 0 Nl1__const_1000^03 ) ) ) 0 ) ( = ( + ( * 1 lam3n0 ) ( * 1 lam3n2 ) ( * 1 lam3n5 ) ( * 1 lam3n6 ) ( * UndefCntr0___const_110^0 lam3n8 ) ( * Nl1__const_110^01 lam3n9 ) ( * Nl1__const_110^02 lam3n10 ) ( * Nl1__const_110^03 lam3n11 ) ( - ( + 0 Nl1__const_110^03 ) ) ) 0 ) ( = ( + ( * ( - 1 ) lam3n1 ) ( * ( - 1 ) lam3n3 ) ( * 1 lam3n5 ) ( * ( - 1 ) lam3n6 ) ( * UndefCntr0___const_4000^0 lam3n8 ) ( * Nl1__const_4000^01 lam3n9 ) ( * Nl1__const_4000^02 lam3n10 ) ( * Nl1__const_4000^03 lam3n11 ) ( - ( + 0 Nl1__const_4000^03 ) ) ) 0 ) ( = ( + ( * ( - 1 ) lam3n0 ) ( * ( - 1 ) lam3n5 ) ( * ( - 1 ) lam3n6 ) ( * 1 lam3n7 ) ( * UndefCntr0_x^0 lam3n8 ) ( * Nl1x^01 lam3n9 ) ( * Nl1x^02 lam3n10 ) ( * Nl1x^03 lam3n11 ) ) 0 ) ( = ( + ( * 1 lam3n1 ) ( * 1 lam3n3 ) ( * ( - 1 ) lam3n5 ) ( * 1 lam3n6 ) ( * UndefCntr0_y^0 lam3n8 ) ( * Nl1y^01 lam3n9 ) ( * Nl1y^02 lam3n10 ) ( * Nl1y^03 lam3n11 ) ( - ( + 0 Nl1y^03 ) ) ) 0 ) ( = ( + ( * ( - 1 ) lam3n2 ) ( * ( - 1 ) lam3n7 ) ( * UndefCntr0_undef5 lam3n8 ) ( - ( + 0 ( * Nl1x^03 1 ) ) ) ) 0 ) ) ))
(assert ( and ( <= ( + Nl1CT1 ( * Nl1__const_1000^01 FV___const_1000^0_1 ) ( * Nl1__const_110^01 FV___const_110^0_1 ) ( * Nl1__const_4000^01 FV___const_4000^0_1 ) ( * Nl1x^01 FV_x^0_1 ) ( * Nl1y^01 FV_y^0_1 ) ) 0 ) ( <= ( + Nl1CT2 ( * Nl1__const_1000^02 FV___const_1000^0_1 ) ( * Nl1__const_110^02 FV___const_110^0_1 ) ( * Nl1__const_4000^02 FV___const_4000^0_1 ) ( * Nl1x^02 FV_x^0_1 ) ( * Nl1y^02 FV_y^0_1 ) ) 0 ) ( <= ( + Nl1CT3 ( * Nl1__const_1000^03 FV___const_1000^0_1 ) ( * Nl1__const_110^03 FV___const_110^0_1 ) ( * Nl1__const_4000^03 FV___const_4000^0_1 ) ( * Nl1x^03 FV_x^0_1 ) ( * Nl1y^03 FV_y^0_1 ) ) 0 ) ( <= ( + 1 ( * ( - 1 ) FV___const_1000^0_1 ) ( * ( - 1 ) FV___const_4000^0_1 ) FV_y^0_1 ) 0 ) ( <= ( + 1 ( * ( - 1 ) FV___const_4000^0_1 ) FV_y^0_1 ) 0 ) ( <= ( + ( * ( - 1 ) FV___const_1000^0_1 ) FV___const_110^0_1 FV___const_4000^0_1 ( * ( - 1 ) FV_x^0_1 ) ( * ( - 1 ) FV_y^0_1 ) ) 0 ) ))
(assert ( or ( not ( = UndefCntr0___const_1000^0 0 ) ) ( not ( = UndefCntr0___const_110^0 0 ) ) ( not ( = UndefCntr0___const_4000^0 0 ) ) ( not ( = UndefCntr0_x^0 0 ) ) ( not ( = UndefCntr0_y^0 0 ) ) ( not ( = UndefCntr0_undef5 0 ) ) ( = UndefCntr0_CT 0 ) ))
(assert ( or ( and ( = UndefCntr0___const_1000^0 0 ) ( = UndefCntr0___const_110^0 0 ) ( = UndefCntr0___const_4000^0 0 ) ( = UndefCntr0_x^0 0 ) ( = UndefCntr0_y^0 0 ) ) ( not ( = UndefCntr0_undef5 0 ) ) ))
(assert ( or ( and ( >= lam7n0 0 ) ( >= lam7n1 0 ) ( >= lam7n2 0 ) ( >= lam7n3 0 ) ( >= lam7n4 0 ) ( >= lam7n5 0 ) ( >= lam7n6 0 ) ( >= lam7n7 0 ) ( >= lam7n8 0 ) ( > ( + ( * 1 lam7n0 ) ( * 1 lam7n1 ) ( * 1 lam7n2 ) ( * 2 lam7n5 ) ( * Nl1CT1 lam7n6 ) ( * Nl1CT2 lam7n7 ) ( * Nl1CT3 lam7n8 ) ( - 1 ) ) 0 ) ( = ( + ( * ( - 1 ) lam7n0 ) ( * ( - 1 ) lam7n1 ) ( * ( - 1 ) lam7n3 ) ( * ( - 1 ) lam7n4 ) ( * ( - 1 ) lam7n5 ) ( * Nl1__const_1000^01 lam7n6 ) ( * Nl1__const_1000^02 lam7n7 ) ( * Nl1__const_1000^03 lam7n8 ) ) 0 ) ( = ( + ( * 1 lam7n0 ) ( * 1 lam7n4 ) ( * 1 lam7n5 ) ( * Nl1__const_110^01 lam7n6 ) ( * Nl1__const_110^02 lam7n7 ) ( * Nl1__const_110^03 lam7n8 ) ) 0 ) ( = ( + ( * ( - 1 ) lam7n1 ) ( * ( - 1 ) lam7n2 ) ( * 1 lam7n4 ) ( * ( - 1 ) lam7n5 ) ( * Nl1__const_4000^01 lam7n6 ) ( * Nl1__const_4000^02 lam7n7 ) ( * Nl1__const_4000^03 lam7n8 ) ) 0 ) ( = ( + ( * ( - 1 ) lam7n0 ) ( * ( - 1 ) lam7n4 ) ( * ( - 1 ) lam7n5 ) ( * Nl1x^01 lam7n6 ) ( * Nl1x^02 lam7n7 ) ( * Nl1x^03 lam7n8 ) ) 0 ) ( = ( + ( * 1 lam7n1 ) ( * 1 lam7n2 ) ( * ( - 1 ) lam7n4 ) ( * 1 lam7n5 ) ( * Nl1y^01 lam7n6 ) ( * Nl1y^02 lam7n7 ) ( * Nl1y^03 lam7n8 ) ) 0 ) ) ( and ( and ( >= lam8n0 0 ) ( >= lam8n1 0 ) ( >= lam8n2 0 ) ( >= lam8n3 0 ) ( >= lam8n4 0 ) ( >= lam8n5 0 ) ( >= lam8n6 0 ) ( >= lam8n7 0 ) ( >= lam8n8 0 ) ( > ( + ( * 1 lam8n0 ) ( * 1 lam8n1 ) ( * 1 lam8n2 ) ( * 2 lam8n5 ) ( * Nl1CT1 lam8n6 ) ( * Nl1CT2 lam8n7 ) ( * Nl1CT3 lam8n8 ) ( - 1 ( + ( + 1 0 ) ( * ( - 1 ) UndefDef0undef5_CT ) ) ) ) 0 ) ( = ( + ( * ( - 1 ) lam8n0 ) ( * ( - 1 ) lam8n1 ) ( * ( - 1 ) lam8n3 ) ( * ( - 1 ) lam8n4 ) ( * ( - 1 ) lam8n5 ) ( * Nl1__const_1000^01 lam8n6 ) ( * Nl1__const_1000^02 lam8n7 ) ( * Nl1__const_1000^03 lam8n8 ) ( - ( * UndefDef0undef5___const_1000^0 ( - 1 ) ) ) ) 0 ) ( = ( + ( * 1 lam8n0 ) ( * 1 lam8n4 ) ( * 1 lam8n5 ) ( * Nl1__const_110^01 lam8n6 ) ( * Nl1__const_110^02 lam8n7 ) ( * Nl1__const_110^03 lam8n8 ) ( - ( + 1 ( * UndefDef0undef5___const_110^0 ( - 1 ) ) ) ) ) 0 ) ( = ( + ( * ( - 1 ) lam8n1 ) ( * ( - 1 ) lam8n2 ) ( * 1 lam8n4 ) ( * ( - 1 ) lam8n5 ) ( * Nl1__const_4000^01 lam8n6 ) ( * Nl1__const_4000^02 lam8n7 ) ( * Nl1__const_4000^03 lam8n8 ) ( - ( * UndefDef0undef5___const_4000^0 ( - 1 ) ) ) ) 0 ) ( = ( + ( * ( - 1 ) lam8n0 ) ( * ( - 1 ) lam8n4 ) ( * ( - 1 ) lam8n5 ) ( * Nl1x^01 lam8n6 ) ( * Nl1x^02 lam8n7 ) ( * Nl1x^03 lam8n8 ) ( - ( * UndefDef0undef5_x^0 ( - 1 ) ) ) ) 0 ) ( = ( + ( * 1 lam8n1 ) ( * 1 lam8n2 ) ( * ( - 1 ) lam8n4 ) ( * 1 lam8n5 ) ( * Nl1y^01 lam8n6 ) ( * Nl1y^02 lam8n7 ) ( * Nl1y^03 lam8n8 ) ( - ( * UndefDef0undef5_y^0 ( - 1 ) ) ) ) 0 ) ) ( and ( >= lam9n0 0 ) ( >= lam9n1 0 ) ( >= lam9n2 0 ) ( >= lam9n3 0 ) ( >= lam9n4 0 ) ( >= lam9n5 0 ) ( >= lam9n6 0 ) ( >= lam9n7 0 ) ( >= lam9n8 0 ) ( > ( + ( * 1 lam9n0 ) ( * 1 lam9n1 ) ( * 1 lam9n2 ) ( * 2 lam9n5 ) ( * Nl1CT1 lam9n6 ) ( * Nl1CT2 lam9n7 ) ( * Nl1CT3 lam9n8 ) ( - 1 ( + ( + ( + 0 0 ) 0 ) ( * ( - 1 ) UndefDef0undef5_CT ) ) ) ) 0 ) ( = ( + ( * ( - 1 ) lam9n0 ) ( * ( - 1 ) lam9n1 ) ( * ( - 1 ) lam9n3 ) ( * ( - 1 ) lam9n4 ) ( * ( - 1 ) lam9n5 ) ( * Nl1__const_1000^01 lam9n6 ) ( * Nl1__const_1000^02 lam9n7 ) ( * Nl1__const_1000^03 lam9n8 ) ( - ( + 1 ( * UndefDef0undef5___const_1000^0 ( - 1 ) ) ) ) ) 0 ) ( = ( + ( * 1 lam9n0 ) ( * 1 lam9n4 ) ( * 1 lam9n5 ) ( * Nl1__const_110^01 lam9n6 ) ( * Nl1__const_110^02 lam9n7 ) ( * Nl1__const_110^03 lam9n8 ) ( - ( * UndefDef0undef5___const_110^0 ( - 1 ) ) ) ) 0 ) ( = ( + ( * ( - 1 ) lam9n1 ) ( * ( - 1 ) lam9n2 ) ( * 1 lam9n4 ) ( * ( - 1 ) lam9n5 ) ( * Nl1__const_4000^01 lam9n6 ) ( * Nl1__const_4000^02 lam9n7 ) ( * Nl1__const_4000^03 lam9n8 ) ( - ( * UndefDef0undef5___const_4000^0 ( - 1 ) ) ) ) 0 ) ( = ( + ( * ( - 1 ) lam9n0 ) ( * ( - 1 ) lam9n4 ) ( * ( - 1 ) lam9n5 ) ( * Nl1x^01 lam9n6 ) ( * Nl1x^02 lam9n7 ) ( * Nl1x^03 lam9n8 ) ( - ( + 1 ( * UndefDef0undef5_x^0 ( - 1 ) ) ) ) ) 0 ) ( = ( + ( * 1 lam9n1 ) ( * 1 lam9n2 ) ( * ( - 1 ) lam9n4 ) ( * 1 lam9n5 ) ( * Nl1y^01 lam9n6 ) ( * Nl1y^02 lam9n7 ) ( * Nl1y^03 lam9n8 ) ( - ( * UndefDef0undef5_y^0 ( - 1 ) ) ) ) 0 ) ) ( and ( >= lam10n0 0 ) ( >= lam10n1 0 ) ( >= lam10n2 0 ) ( >= lam10n3 0 ) ( >= lam10n4 0 ) ( >= lam10n5 0 ) ( >= lam10n6 0 ) ( >= lam10n7 0 ) ( >= lam10n8 0 ) ( > ( + ( * 1 lam10n0 ) ( * 1 lam10n1 ) ( * 1 lam10n2 ) ( * 2 lam10n5 ) ( * Nl1CT1 lam10n6 ) ( * Nl1CT2 lam10n7 ) ( * Nl1CT3 lam10n8 ) ( - 1 ( - ( + ( + ( + 0 0 ) 0 ) ( * ( - 1 ) UndefDef0undef5_CT ) ) ) ) ) 0 ) ( = ( + ( * ( - 1 ) lam10n0 ) ( * ( - 1 ) lam10n1 ) ( * ( - 1 ) lam10n3 ) ( * ( - 1 ) lam10n4 ) ( * ( - 1 ) lam10n5 ) ( * Nl1__const_1000^01 lam10n6 ) ( * Nl1__const_1000^02 lam10n7 ) ( * Nl1__const_1000^03 lam10n8 ) ( - ( - ( + 1 ( * UndefDef0undef5___const_1000^0 ( - 1 ) ) ) ) ) ) 0 ) ( = ( + ( * 1 lam10n0 ) ( * 1 lam10n4 ) ( * 1 lam10n5 ) ( * Nl1__const_110^01 lam10n6 ) ( * Nl1__const_110^02 lam10n7 ) ( * Nl1__const_110^03 lam10n8 ) ( - ( - ( * UndefDef0undef5___const_110^0 ( - 1 ) ) ) ) ) 0 ) ( = ( + ( * ( - 1 ) lam10n1 ) ( * ( - 1 ) lam10n2 ) ( * 1 lam10n4 ) ( * ( - 1 ) lam10n5 ) ( * Nl1__const_4000^01 lam10n6 ) ( * Nl1__const_4000^02 lam10n7 ) ( * Nl1__const_4000^03 lam10n8 ) ( - ( - ( * UndefDef0undef5___const_4000^0 ( - 1 ) ) ) ) ) 0 ) ( = ( + ( * ( - 1 ) lam10n0 ) ( * ( - 1 ) lam10n4 ) ( * ( - 1 ) lam10n5 ) ( * Nl1x^01 lam10n6 ) ( * Nl1x^02 lam10n7 ) ( * Nl1x^03 lam10n8 ) ( - ( - ( + 1 ( * UndefDef0undef5_x^0 ( - 1 ) ) ) ) ) ) 0 ) ( = ( + ( * 1 lam10n1 ) ( * 1 lam10n2 ) ( * ( - 1 ) lam10n4 ) ( * 1 lam10n5 ) ( * Nl1y^01 lam10n6 ) ( * Nl1y^02 lam10n7 ) ( * Nl1y^03 lam10n8 ) ( - ( - ( * UndefDef0undef5_y^0 ( - 1 ) ) ) ) ) 0 ) ) ( or ( = UndefCntr0_undef5 0 ) ( and ( >= lam11n0 0 ) ( >= lam11n1 0 ) ( >= lam11n2 0 ) ( >= lam11n3 0 ) ( >= lam11n4 0 ) ( >= lam11n5 0 ) ( >= lam11n6 0 ) ( >= lam11n7 0 ) ( >= lam11n8 0 ) ( > ( + ( * 1 lam11n0 ) ( * 1 lam11n1 ) ( * 1 lam11n2 ) ( * 2 lam11n5 ) ( * Nl1CT1 lam11n6 ) ( * Nl1CT2 lam11n7 ) ( * Nl1CT3 lam11n8 ) ( - 1 ( + ( + ( + ( + ( + ( + UndefCntr0_CT 0 ) 0 ) 0 ) 0 ) 0 ) ( * UndefCntr0_undef5 UndefDef0undef5_CT ) ) ) ) 0 ) ( = ( + ( * ( - 1 ) lam11n0 ) ( * ( - 1 ) lam11n1 ) ( * ( - 1 ) lam11n3 ) ( * ( - 1 ) lam11n4 ) ( * ( - 1 ) lam11n5 ) ( * Nl1__const_1000^01 lam11n6 ) ( * Nl1__const_1000^02 lam11n7 ) ( * Nl1__const_1000^03 lam11n8 ) ( - ( + UndefCntr0___const_1000^0 ( * UndefDef0undef5___const_1000^0 UndefCntr0_undef5 ) ) ) ) 0 ) ( = ( + ( * 1 lam11n0 ) ( * 1 lam11n4 ) ( * 1 lam11n5 ) ( * Nl1__const_110^01 lam11n6 ) ( * Nl1__const_110^02 lam11n7 ) ( * Nl1__const_110^03 lam11n8 ) ( - ( + UndefCntr0___const_110^0 ( * UndefDef0undef5___const_110^0 UndefCntr0_undef5 ) ) ) ) 0 ) ( = ( + ( * ( - 1 ) lam11n1 ) ( * ( - 1 ) lam11n2 ) ( * 1 lam11n4 ) ( * ( - 1 ) lam11n5 ) ( * Nl1__const_4000^01 lam11n6 ) ( * Nl1__const_4000^02 lam11n7 ) ( * Nl1__const_4000^03 lam11n8 ) ( - ( + UndefCntr0___const_4000^0 ( * UndefDef0undef5___const_4000^0 UndefCntr0_undef5 ) ) ) ) 0 ) ( = ( + ( * ( - 1 ) lam11n0 ) ( * ( - 1 ) lam11n4 ) ( * ( - 1 ) lam11n5 ) ( * Nl1x^01 lam11n6 ) ( * Nl1x^02 lam11n7 ) ( * Nl1x^03 lam11n8 ) ( - ( + UndefCntr0_x^0 ( * UndefDef0undef5_x^0 UndefCntr0_undef5 ) ) ) ) 0 ) ( = ( + ( * 1 lam11n1 ) ( * 1 lam11n2 ) ( * ( - 1 ) lam11n4 ) ( * 1 lam11n5 ) ( * Nl1y^01 lam11n6 ) ( * Nl1y^02 lam11n7 ) ( * Nl1y^03 lam11n8 ) ( - ( + UndefCntr0_y^0 ( * UndefDef0undef5_y^0 UndefCntr0_undef5 ) ) ) ) 0 ) ) ) ) ))
(assert ( and ( >= lam12n0 0 ) ( >= lam12n1 0 ) ( >= lam12n2 0 ) ( >= lam12n3 0 ) ( >= lam12n4 0 ) ( >= lam12n5 0 ) ( >= lam12n6 0 ) ( >= lam12n7 0 ) ( >= lam12n8 0 ) ( > ( + ( * 1 lam12n0 ) ( * 1 lam12n1 ) ( * 1 lam12n2 ) ( * 1 lam12n3 ) ( * 2 lam12n5 ) ( * Nl1CT1 lam12n6 ) ( * Nl1CT2 lam12n7 ) ( * Nl1CT3 lam12n8 ) ( - 1 ) ) 0 ) ( = ( + ( * 1 lam12n0 ) ( * ( - 1 ) lam12n1 ) ( * ( - 1 ) lam12n2 ) ( * ( - 1 ) lam12n4 ) ( * ( - 1 ) lam12n5 ) ( * Nl1__const_1000^01 lam12n6 ) ( * Nl1__const_1000^02 lam12n7 ) ( * Nl1__const_1000^03 lam12n8 ) ) 0 ) ( = ( + ( * 1 lam12n1 ) ( * 1 lam12n4 ) ( * 1 lam12n5 ) ( * Nl1__const_110^01 lam12n6 ) ( * Nl1__const_110^02 lam12n7 ) ( * Nl1__const_110^03 lam12n8 ) ) 0 ) ( = ( + ( * ( - 1 ) lam12n2 ) ( * ( - 1 ) lam12n3 ) ( * 1 lam12n4 ) ( * ( - 1 ) lam12n5 ) ( * Nl1__const_4000^01 lam12n6 ) ( * Nl1__const_4000^02 lam12n7 ) ( * Nl1__const_4000^03 lam12n8 ) ) 0 ) ( = ( + ( * ( - 1 ) lam12n1 ) ( * ( - 1 ) lam12n4 ) ( * ( - 1 ) lam12n5 ) ( * Nl1x^01 lam12n6 ) ( * Nl1x^02 lam12n7 ) ( * Nl1x^03 lam12n8 ) ) 0 ) ( = ( + ( * 1 lam12n2 ) ( * 1 lam12n3 ) ( * ( - 1 ) lam12n4 ) ( * 1 lam12n5 ) ( * Nl1y^01 lam12n6 ) ( * Nl1y^02 lam12n7 ) ( * Nl1y^03 lam12n8 ) ) 0 ) ))
(assert ( and ( and ( <= ( + Nl1CT1 ( * Nl1__const_1000^01 FV___const_1000^0_2 ) ( * Nl1__const_110^01 FV___const_110^0_2 ) ( * Nl1x^01 FV_x^0_2 ) ( * Nl1__const_4000^01 FV___const_4000^0_2 ) ( * Nl1y^01 FV_y^0_2 ) ) 0 ) ( <= ( + Nl1CT2 ( * Nl1__const_1000^02 FV___const_1000^0_2 ) ( * Nl1__const_110^02 FV___const_110^0_2 ) ( * Nl1x^02 FV_x^0_2 ) ( * Nl1__const_4000^02 FV___const_4000^0_2 ) ( * Nl1y^02 FV_y^0_2 ) ) 0 ) ( <= ( + Nl1CT3 ( * Nl1__const_1000^03 FV___const_1000^0_2 ) ( * Nl1__const_110^03 FV___const_110^0_2 ) ( * Nl1x^03 FV_x^0_2 ) ( * Nl1__const_4000^03 FV___const_4000^0_2 ) ( * Nl1y^03 FV_y^0_2 ) ) 0 ) ) ( and ( <= ( + 1 ( * ( - 1 ) FV___const_1000^0_2 ) FV___const_110^0_2 ( * ( - 1 ) FV_x^0_2 ) ) 0 ) ( <= ( + 1 ( * ( - 1 ) FV___const_1000^0_2 ) ( * ( - 1 ) FV___const_4000^0_2 ) FV_y^0_2 ) 0 ) ( <= ( + 1 FV___const_110^0_2 ( * ( - 1 ) FV_undef5_2 ) ) 0 ) ( <= ( + 1 ( * ( - 1 ) FV___const_4000^0_2 ) FV_y^0_2 ) 0 ) ( <= ( * ( - 1 ) FV___const_1000^0_2 ) 0 ) ( <= ( + ( * ( - 1 ) FV___const_1000^0_2 ) FV___const_110^0_2 ( * ( - 1 ) FV_x^0_2 ) FV___const_4000^0_2 ( * ( - 1 ) FV_y^0_2 ) ) 0 ) ( <= ( + 2 ( * ( - 1 ) FV___const_1000^0_2 ) FV___const_110^0_2 ( * ( - 1 ) FV_x^0_2 ) ( * ( - 1 ) FV___const_4000^0_2 ) FV_y^0_2 ) 0 ) ( = ( + FV___const_1000^0_2 FV_x^0_2 ( * ( - 1 ) FV_undef5_2 ) ) 0 ) ) ))
(check-sat)
(exit)
